cvc5/14593.corecstrs.readable_hard.smt2
(set-info :smt-lib-version 2.6)
(set-logic QF_SLIA)
(set-info :source |
Generated by: Andrew Reynolds
Generated on: 2018-04-25
Generator: Kudzu, converted to v2.6 by CVC4
Application: Symbolic Execution of Javascript
Target solver: Kaluza
Publications: "A symbolic execution framework for JavaScript" by P. Saxena, D. Akhawe, S. Hanna, F. Mao, S. McCamant, and D. Song, 2010.
|)
(set-info :license "https://creativecommons.org/licenses/by/4.0/")
(set-info :category "industrial")
(set-info :status unknown)



(declare-fun T_1 () Bool)
(declare-fun var_0xINPUT_130912 () String)
(declare-const rest_0_5761 String)
(declare-const num_0_5870 Int)
(declare-const num_1_3965 Int)
(assert (= T_1 (not (= "file:" var_0xINPUT_130912))))
(assert T_1)
(assert (= (str.split_at var_0xINPUT_130912 ";" 3) var_0xINPUT_130912))
(assert (= (str.split_rest var_0xINPUT_130912 ";" 1) rest_0_5761))
(assert (str.contains rest_0_5761 "j"))
(assert (= (str.num_splits var_0xINPUT_130912 ";") num_0_5870))
(assert (>= num_0_5870 3))
(assert (= (str.num_splits var_0xINPUT_130912 ";") num_1_3965))
(assert (<= num_1_3965 4))
(check-sat)

(exit)
(get-model)
